NAME: CMT2_7
TYPE: CVRP
COMMENT: 835.26 - Cluster Nr.7
DIMENSION: 8
CAPACITY: 140
EDGE_WEIGHT_TYPE: EUC_2D
NODE_COORD_TYPE: TWOD_COORDS
NODE_COORD_SECTION: 
1 55 34
5 50 30
7 54 38
4 50 40
3 40 40
8 62 35
2 51 42
6 55 45
DEPOT_SECTION: 
3
-1
DEMAND_SECTION: 
4 19
8 12
2 27
7 19
3 0
1 17
5 21
6 16
EOF
